LAMMPS (23 Jun 2022 - Update 2)
OMP_NUM_THREADS environment is not set. Defaulting to 1 thread. (../comm.cpp:98)
  using 1 OpenMP thread(s) per MPI task
units		metal
atom_style	atomic
boundary	p p p
box		tilt large
read_data	test.lammps
Reading data file ...
  orthogonal box = (0 0 0) to (12 12 8.8118794)
  6 by 6 by 4 MPI processor grid
  reading atoms ...
  96 atoms
  read_data CPU = 0.020 seconds

pair_style hybrid/overlay nn/intel zbl/pair

pair_coeff  * * nn/intel potential_OHf O Hf
AVX2 for angular descriptor G4 calc : on
AVX2 for angular descriptor G5 calc : off
AVX512 for descriptor calc : on

pair_coeff	1 1	zbl/pair 8 8	0.8631 1.1097
pair_coeff	1 2	zbl/pair 8 72	1.2108 1.5567
pair_coeff	2 2	zbl/pair 72 72	1.6751 2.1537

mass	1 15.9990
mass	2 178.4900

thermo		1000
thermo_modify	lost ignore flush yes

minimize        1e-6 1e-10 10000 100000
WARNING: Using 'neigh_modify every 1 delay 0 check yes' setting during minimization (../min.cpp:187)
Generated 0 of 1 mixed pair_coeff terms from geometric mixing rule
Neighbor list info ...
  update every 1 steps, delay 0 steps, check yes
  max neighbors/atom: 2000, page size: 100000
  master list distance cutoff = 8
  ghost atom cutoff = 8
  binsize = 4, bins = 3 3 3
  2 neighbor lists, perpetual/occasional/extra = 2 0 0
  (1) pair nn/intel, perpetual
      attributes: full, newton on
      pair build: full/bin/atomonly
      stencil: full/bin/3d
      bin: standard
  (2) pair zbl/pair, perpetual, half/full from (1)
      attributes: half, newton on
      pair build: halffull/newton
      stencil: none
      bin: none
Per MPI rank memory allocation (min/avg/max) = 4.779 | 4.779 | 4.779 Mbytes
   Step          Temp          E_pair         E_mol          TotEng         Press     
         0   0             -960.65309      0             -960.65309     -17682.153    
        13   0             -960.75141      0             -960.75141     -22480.2      
Loop time of 0.0243921 on 144 procs for 13 steps with 96 atoms

96.9% CPU use with 144 MPI tasks x 1 OpenMP threads

Minimization stats:
  Stopping criterion = energy tolerance
  Energy initial, next-to-last, final = 
     -960.653090755217  -960.750630777512  -960.751408518375
  Force two-norm initial, final = 0.50559921 0.13760093
  Force max component initial, final = 0.098352637 0.027787554
  Final line search alpha, max atom move = 1 0.027787554
  Iterations, force evaluations = 13 26

MPI task timing breakdown:
Section |  min time  |  avg time  |  max time  |%varavg| %total
---------------------------------------------------------------
Pair    | 6.667e-06  | 0.0047267  | 0.019146   |   6.1 | 19.38
Neigh   | 0          | 0          | 0          |   0.0 |  0.00
Comm    | 0.0035311  | 0.017749   | 0.022643   |   3.1 | 72.77
Output  | 0          | 0          | 0          |   0.0 |  0.00
Modify  | 0          | 0          | 0          |   0.0 |  0.00
Other   |            | 0.001916   |            |       |  7.86

Nlocal:       0.666667 ave           2 max           0 min
Histogram: 56 0 0 0 0 80 0 0 0 8
Nghost:        444.271 ave         461 max         424 min
Histogram: 1 5 13 10 27 35 22 16 11 4
Neighs:        53.7292 ave         174 max           0 min
Histogram: 56 0 0 0 75 5 0 0 2 6
FullNghs:      107.458 ave         327 max           0 min
Histogram: 56 0 0 0 64 16 0 0 0 8

Total # of neighbors = 15474
Ave neighs/atom = 161.1875
Neighbor list builds = 0
Dangerous builds = 0

dump              DUMP all custom 1000 dump.lammpstrj id type x y z
dump_modify    DUMP sort id

velocity	all create 3000 4218 dist gaussian
fix                  THERMOSTAT all nvt temp 3000 3000 1

timestep	0.0010
run             100000
Generated 0 of 1 mixed pair_coeff terms from geometric mixing rule
Per MPI rank memory allocation (min/avg/max) = 3.671 | 3.671 | 3.671 Mbytes
   Step          Temp          E_pair         E_mol          TotEng         Press     
        13   3000          -960.75141      0             -923.91227      8529.4997    
      1000   1661.9528     -938.77572      0             -918.36742      44.652527    
      2000   1887.6062     -932.94137      0             -909.7621       19474.991    
      3000   2258.0933     -926.97328      0             -899.24454      48943.553    
      4000   2539.7824     -919.08808      0             -887.90028      25040.668    
      5000   3071.5051     -915.20082      0             -877.48362      37665.028    
      6000   2908.038      -905.24998      0             -869.54011      35234.939    
      7000   3348.549      -907.4348       0             -866.31558      62666.111    
      8000   3276.9573     -910.03726      0             -869.79717      78101.179    
      9000   2857.325      -911.83737      0             -876.75024      35203.282    
     10000   2678.4389     -913.39477      0             -880.50431      25128.169    
     11000   2708.9554     -913.51374      0             -880.24854      34660.264    
     12000   3349.7831     -916.47646      0             -875.34208      26337.71     
     13000   2935.401      -906.57483      0             -870.52895      40687.514    
     14000   3182.9978     -909.15144      0             -870.06514      43322.979    
     15000   3080.4881     -914.83312      0             -877.00561      44671.826    
     16000   2860.1677     -915.41488      0             -880.29283      58463.221    
     17000   2943.3721     -915.09345      0             -878.94968      97310.212    
     18000   3061.7239     -914.10001      0             -876.50292      33898.678    
     19000   3262.308      -911.54817      0             -871.48796      80196.843    
     20000   3421.1316     -905.17322      0             -863.1627       74496.264    
     21000   3618.3952     -906.94848      0             -862.51562      92053.049    
     22000   3441.1332     -909.48396      0             -867.22783      47873.881    
     23000   3067.6714     -908.60018      0             -870.93005      34969.885    
     24000   2911.5792     -911.22992      0             -875.47656      40689.606    
     25000   2591.6329     -910.93581      0             -879.1113       66160.206    
     26000   2647.7052     -912.27227      0             -879.75921     -3410.959     
     27000   3214.9016     -913.65968      0             -874.18161      21773.125    
     28000   3636.0863     -913.00437      0             -868.35427      103483.22    
     29000   3148.0529     -909.31289      0             -870.6557       82090.64     
     30000   3082.8913     -913.99975      0             -876.14273      77250.646    
     31000   3011.7109     -914.47584      0             -877.49289      82611.408    
     32000   2789.7247     -911.34108      0             -877.08406      54363.842    
     33000   2896.6117     -911.66938      0             -876.09981      48353.405    
     34000   2879.4422     -907.33025      0             -871.97152      38705.513    
     35000   3312.0048     -905.34768      0             -864.67721      72536.04     
     36000   2950.0498     -902.92614      0             -866.70037      70299.966    
     37000   3275.6306     -913.39711      0             -873.17331      62923.082    
     38000   2947.3223     -911.42837      0             -875.23609      65698.859    
     39000   2931.1638     -911.70285      0             -875.709        40192.597    
     40000   3425.124      -917.36764      0             -875.3081       80297.575    
     41000   3322.395      -914.40815      0             -873.61009      100929.23    
     42000   3201.7784     -910.0829       0             -870.76597      23901.758    
     43000   2978.9408     -906.26036      0             -869.67982      59887.69     
     44000   3300.4549     -909.89393      0             -869.36529      45718.355    
     45000   3509.3183     -917.83227      0             -874.73885      71384.062    
     46000   2949.9729     -915.84664      0             -879.62182      50809.891    
     47000   2894.3275     -916.20421      0             -880.66269      61871.984    
     48000   2660.7065     -908.37935      0             -875.70664      49005.458    
     49000   3279.5643     -907.97944      0             -867.70733      106479.91    
     50000   3353.5521     -909.72915      0             -868.54849      74500.424    
     51000   3241.0812     -913.87429      0             -874.07474      21265.941    
     52000   3226.8689     -917.18956      0             -877.56453      7894.526     
     53000   3144.4775     -916.72489      0             -878.11161      46870.185    
     54000   2826.2654     -911.43515      0             -876.72942      67833.163    
     55000   3067.3676     -907.28223      0             -869.61583      71663.203    
     56000   3244.8147     -906.82839      0             -866.983        89105.824    
     57000   2995.6761     -909.52615      0             -872.74011      22564.55     
     58000   2739.0249     -910.64856      0             -877.01412      65104.675    
     59000   3070.5811     -915.12144      0             -877.41558      85641.382    
     60000   2837.4311     -911.33706      0             -876.49422      32898.594    
     61000   3300.2996     -911.65926      0             -871.13252      43292.859    
     62000   3295.7378     -904.84757      0             -864.37685      87334.858    
     63000   3065.6918     -905.35888      0             -867.71306      52665.424    
     64000   3055.5026     -910.85338      0             -873.33269      27270.11     
     65000   3224.0997     -914.77201      0             -875.18099      58044.42     
     66000   3011.796      -913.00943      0             -876.02544      22220.629    
     67000   3146.0075     -914.83258      0             -876.20051      54920.967    
     68000   3215.3229     -913.69206      0             -874.20882      67313.152    
     69000   3502.88       -914.16687      0             -871.15251      27613.699    
     70000   3144.2912     -909.11178      0             -870.50078      50731.489    
     71000   2758.6316     -909.2837       0             -875.4085       59143.18     
     72000   2870.8949     -916.15752      0             -880.90376      28323.293    
     73000   2860.149      -915.57221      0             -880.4504       70797.382    
     74000   2471.9972     -907.13128      0             -876.77586      42418.363    
     75000   3090.9952     -912.31158      0             -874.35504      57186.008    
     76000   2863.5912     -909.83666      0             -874.67258      56046.102    
     77000   3012.9169     -912.12996      0             -875.1322       61831.734    
     78000   3149.3418     -914.05295      0             -875.37993      7789.5965    
     79000   3218.6311     -911.39199      0             -871.86812      66534.857    
     80000   2899.0665     -902.87251      0             -867.27281      96865.268    
     81000   3075.835      -905.368        0             -867.59763      70461.513    
     82000   2818.4091     -910.4445       0             -875.83525      24253.848    
     83000   2936.0708     -914.11271      0             -878.0586       57456.804    
     84000   2822.4556     -911.67699      0             -877.01805      19667.035    
     85000   3186.0847     -913.05755      0             -873.93334      17843.501    
     86000   3251.0915     -906.18942      0             -866.26694      18304.242    
     87000   3575.2001     -909.14514      0             -865.24271      54460.659    
     88000   3245.1395     -913.14158      0             -873.29219      9351.1393    
     89000   2977.9522     -911.90019      0             -875.33179      39344.382    
     90000   3609.3729     -918.77436      0             -874.4523       21483.888    
     91000   3085.481      -911.08112      0             -873.19229      79626.277    
     92000   3292.401      -914.39163      0             -873.96189      26328.426    
     93000   2806.0539     -913.11869      0             -878.66115      2095.1091    
     94000   2525.6644     -912.54818      0             -881.53374      37534.296    
     95000   2702.582      -911.40489      0             -878.21796      28608.442    
     96000   3403.6725     -912.37525      0             -870.57912      82382.689    
     97000   3262.497      -911.02659      0             -870.96406      49491.987    
     98000   2872.4131     -909.99724      0             -874.72483      55989.365    
     99000   2808.8095     -912.80011      0             -878.30873      45751.507    
    100000   2708.1183     -912.31645      0             -879.06153      76865.57     
    100013   2652.4745     -911.59941      0             -879.02778      61801.064    
Loop time of 72.8684 on 144 procs for 100000 steps with 96 atoms

Performance: 118.570 ns/day, 0.202 hours/ns, 1372.337 timesteps/s
99.6% CPU use with 144 MPI tasks x 1 OpenMP threads

MPI task timing breakdown:
Section |  min time  |  avg time  |  max time  |%varavg| %total
---------------------------------------------------------------
Pair    | 11.82      | 14.083     | 17.162     |  30.2 | 19.33
Neigh   | 0.03711    | 0.041795   | 0.047215   |   1.0 |  0.06
Comm    | 48.027     | 50.968     | 53.157     |  15.3 | 69.95
Output  | 0.10385    | 0.10416    | 0.10707    |   0.1 |  0.14
Modify  | 5.899      | 6.3607     | 6.7734     |   7.5 |  8.73
Other   |            | 1.311      |            |       |  1.80

Nlocal:       0.666667 ave           2 max           0 min
Histogram: 58 0 0 0 0 76 0 0 0 10
Nghost:        444.833 ave         467 max         415 min
Histogram: 3 4 8 18 15 29 22 24 10 11
Neighs:        53.8056 ave         173 max           0 min
Histogram: 58 0 0 0 72 4 0 0 1 9
FullNghs:      107.611 ave         329 max           0 min
Histogram: 58 0 0 0 61 15 0 0 0 10

Total # of neighbors = 15496
Ave neighs/atom = 161.41667
Neighbor list builds = 3263
Dangerous builds = 0
unfix           THERMOSTAT

fix              THERMOSTAT all nvt temp 3000 500 1
run             250000
Generated 0 of 1 mixed pair_coeff terms from geometric mixing rule
Per MPI rank memory allocation (min/avg/max) = 3.921 | 4.588 | 4.922 Mbytes
   Step          Temp          E_pair         E_mol          TotEng         Press     
    100013   2652.4745     -911.59941      0             -879.02778      61801.064    
    101000   2834.9135     -911.63418      0             -876.82226      94231.105    
    102000   3193.6113     -908.85879      0             -869.64216      62144.007    
    103000   3120.619      -905.89769      0             -867.57738      64613.349    
    104000   3204.828      -908.50061      0             -869.14624      51667.276    
    105000   3097.1963     -910.10583      0             -872.07314      48649.186    
    106000   2852.284      -911.70141      0             -876.67618      54049.018    
    107000   2485.078      -909.36111      0             -878.84506      12650.887    
    108000   2978.4759     -914.9077       0             -878.33287      36184.249    
    109000   2983.3447     -913.92107      0             -877.28645      45502.223    
    110000   3157.5853     -915.81978      0             -877.04553      39198.381    
    111000   3203.8722     -916.23093      0             -876.88829      68234.625    
    112000   2726.2907     -911.16342      0             -877.68535      60602.036    
    113000   2641.2603     -911.3251       0             -878.89118      24586.256    
    114000   2522.4944     -914.12333      0             -883.14782      43283.66     
    115000   2359.656      -915.79123      0             -886.81533      41181.666    
    116000   2629.3901     -915.96521      0             -883.67706      3507.2291    
    117000   2596.3922     -909.38054      0             -877.49759      49916.955    
    118000   3016.5219     -913.57202      0             -876.52999      58263.751    
    119000   2739.5758     -911.111        0             -877.46979      78633.392    
    120000   2883.9481     -915.14845      0             -879.73439      70680.694    
    121000   2484.0347     -917.15619      0             -886.65296      1276.0559    
    122000   2755.5352     -921.50693      0             -887.66975      58945.89     
    123000   2577.5917     -916.32617      0             -884.67408      47633.525    
    124000   2863.3011     -912.82955      0             -877.66903      63966.504    
    125000   2909.3394     -912.14479      0             -876.41893      57378.403    
    126000   2961.0269     -915.19757      0             -878.837        73494.934    
    127000   2866.0106     -918.19138      0             -882.99759      82345.412    
    128000   2436.6598     -915.60802      0             -885.68653      35488.575    
    129000   2607.3608     -917.79189      0             -885.77425      35181.702    
    130000   2909.5768     -914.06442      0             -878.33565      54709.644    
    131000   2898.6026     -910.50371      0             -874.9097       65677.765    
    132000   3145.1118     -917.5655       0             -878.94443      75491.422    
    133000   2784.7879     -918.50172      0             -884.30532      17923.377    
    134000   2644.5984     -919.03661      0             -886.5617       2067.0937    
    135000   2812.8102     -922.27504      0             -887.73454      51625.765    
    136000   2647.9564     -918.63907      0             -886.12293     -5785.1094    
    137000   3216.8774     -917.33955      0             -877.83722      92989.515    
    138000   2940.0747     -914.0495       0             -877.94623      63426.487    
    139000   2474.3413     -913.25567      0             -882.87146      39864.55     
    140000   2451.2188     -915.99111      0             -885.89085      60121.018    
    141000   2628.7296     -919.32493      0             -887.04488      74067.916    
    142000   2509.3513     -918.06752      0             -887.2534       37494.634    
    143000   2541.8452     -917.86408      0             -886.65095      40802.893    
    144000   2723.1307     -917.92428      0             -884.48502      76513.77     
    145000   2651.732      -917.33722      0             -884.77471      53844.137    
    146000   2543.8822     -918.82589      0             -887.58775      15080.117    
    147000   2390.1187     -921.25066      0             -891.90069      32303.681    
    148000   2648.5111     -924.83703      0             -892.31407      29091.293    
    149000   2519.3597     -918.76951      0             -887.83249      42556.354    
    150000   2876.458      -917.27737      0             -881.95529      51449.747    
    151000   2684.6383     -916.31229      0             -883.3457       29585.587    
    152000   2425.461      -917.25793      0             -887.47396      46208.358    
    153000   2467.5331     -920.55492      0             -890.25432      33797.919    
    154000   2310.9118     -919.93883      0             -891.5615       41665.165    
    155000   2703.1273     -925.02183      0             -891.8282       34843.089    
    156000   2268.3255     -919.93842      0             -892.08404      497.29632    
    157000   2310.73       -920.0209       0             -891.6458       15850.82     
    158000   2256.7452     -918.72617      0             -891.01398      40528.987    
    159000   2165.0038     -917.52423      0             -890.9386       41292.37     
    160000   2787.5976     -923.85089      0             -889.61999      41742.33     
    161000   2473.635      -921.33556      0             -890.96003      22944.746    
    162000   2328.5724     -924.62364      0             -896.02944      39101.011    
    163000   2240.9119     -925.13643      0             -897.61867      34817.164    
    164000   2427.3554     -925.15712      0             -895.34989      75180.308    
    165000   2419.5138     -918.13071      0             -888.41977      32136.825    
    166000   2382.0843     -917.4999       0             -888.24859      56487.805    
    167000   2305.1037     -920.95031      0             -892.64429      32934.818    
    168000   2241.8532     -923.23629      0             -895.70697     -15376.592    
    169000   2469.2679     -927.39292      0             -897.07102      40830.218    
    170000   2180.7321     -924.82064      0             -898.04187      42939.965    
    171000   2014.0176     -927.3585       0             -902.62694      2377.9724    
    172000   1954.9131     -929.26836      0             -905.26258      39037.656    
    173000   2009.8126     -927.30477      0             -902.62485      5813.4802    
    174000   2508.087      -928.74337      0             -897.94478      11369.824    
    175000   2367.2709     -926.19922      0             -897.12982      14977.38     
    176000   2389.3165     -927.42671      0             -898.08658      39521.922    
    177000   2008.6019     -925.72759      0             -901.06253      37561.264    
    178000   1983.2144     -929.75354      0             -905.40023      53906.026    
    179000   2083.7        -931.48341      0             -905.89617      42166.712    
    180000   2416.0983     -928.8862       0             -899.2172       44190.509    
    181000   2261.5843     -925.15778      0             -897.38618      45655.27     
    182000   2056.0516     -924.82913      0             -899.5814       18288.307    
    183000   1796.4266     -925.93221      0             -903.8726       14968.574    
    184000   2007.085      -930.05096      0             -905.40453      38912.846    
    185000   1978.6521     -929.19614      0             -904.89886      19580.74     
    186000   2343.1279     -931.21041      0             -902.43747      3396.4384    
    187000   2241.4663     -922.16049      0             -894.63592      50120.397    
    188000   2395.6899     -924.61064      0             -895.19226      28433.865    
    189000   2054.1695     -924.42799      0             -899.20337      38718.018    
    190000   2218.1474     -928.80546      0             -901.56724     -1879.4638    
    191000   2204.3635     -930.80811      0             -903.73916      13190.847    
    192000   1754.2437     -928.0269       0             -906.48529     -12268.108    
    193000   1936.4619     -935.3548       0             -911.5756       46678.349    
    194000   1526.6764     -931.62647      0             -912.87932      6123.2094    
    195000   1711.5943     -930.52069      0             -909.50281     -10145.037    
    196000   1835.1723     -929.39664      0             -906.86125      4072.7303    
    197000   2155.6559     -930.17805      0             -903.70721      29295.831    
    198000   1941.7795     -925.16694      0             -901.32245     -6966.6487    
    199000   2070.1436     -927.01401      0             -901.59324      34872.976    
    200000   2087.1261     -932.93258      0             -907.30327     -7736.6533    
    201000   1774.8523     -931.19009      0             -909.39541      20358.484    
    202000   1591.2128     -927.73637      0             -908.19674     -1094.5899    
    203000   1817.6999     -927.80971      0             -905.48888      46828.576    
    204000   2289.2304     -930.43085      0             -902.31976      49650.525    
    205000   2224.1466     -925.30069      0             -897.9888       30396.662    
    206000   2580.7625     -928.66068      0             -896.96966      45523.071    
    207000   2110.3481     -929.56255      0             -903.64808      20755.511    
    208000   2095.0464     -932.10387      0             -906.3773       31432.314    
    209000   1997.063      -933.65766      0             -909.1343       20501.448    
    210000   1826.9249     -933.14077      0             -910.70666      46338.494    
    211000   1973.4212     -934.34363      0             -910.11059      52510.414    
    212000   1908.172      -929.5621       0             -906.13029      17689.821    
    213000   2226.7695     -930.58129      0             -903.2372       32799.013    
    214000   2013.5244     -931.02429      0             -906.29878      2134.8033    
    215000   1936.9882     -933.71392      0             -909.92826     -28.673982    
    216000   1862.0417     -934.7166       0             -911.85126      10994.676    
    217000   1669.0601     -934.30178      0             -913.8062      -4464.6631    
    218000   1598.2619     -934.65103      0             -915.02483      24898.766    
    219000   1684.541      -934.35786      0             -913.67218     -13059.274    
    220000   2008.6        -933.78728      0             -909.12225      10978.653    
    221000   2019.9531     -932.95581      0             -908.15136      23245.381    
    222000   1879.0078     -934.11768      0             -911.044       -16562.19     
    223000   1751.1423     -935.08399      0             -913.58046      24813.524    
    224000   1814.6434     -936.01008      0             -913.72678     -4165.5632    
    225000   1628.5595     -933.1912       0             -913.19295      747.62984    
    226000   1879.9087     -935.94175      0             -912.85701     -11940.555    
    227000   1845.1737     -935.17608      0             -912.51788      40642.715    
    228000   1776.3681     -932.62177      0             -910.80848      23529.845    
    229000   1894.5767     -933.61867      0             -910.35381      23863.997    
    230000   1729.6321     -934.74288      0             -913.50349      6835.8466    
    231000   1756.5856     -938.23011      0             -916.65974      20675.13     
    232000   1775.6826     -939.16053      0             -917.35566      35172.056    
    233000   1488.7684     -934.60228      0             -916.32063      23098.656    
    234000   1836.3817     -934.49259      0             -911.94235      9703.5345    
    235000   2174.6472     -936.86587      0             -910.16183      12661.937    
    236000   2071.045      -938.5023       0             -913.07046      18313.62     
    237000   1677.5075     -936.07108      0             -915.47177      4087.7298    
    238000   1620.2329     -937.54607      0             -917.65007      30009.85     
    239000   1583.8188     -938.70159      0             -919.25275      42105.109    
    240000   1528.4623     -939.07157      0             -920.30249      34410.937    
    241000   1569.9421     -940.34262      0             -921.06418      25737.278    
    242000   1528.9026     -938.15335      0             -919.37887      15663.516    
    243000   1610.0459     -936.31852      0             -916.54762      13821.533    
    244000   1738.9412     -937.16279      0             -915.80909      10794.971    
    245000   1650.2573     -938.79526      0             -918.53057      16654.542    
    246000   1271.896      -937.41197      0             -921.79345      18953.307    
    247000   1594.4638     -941.17282      0             -921.59326      790.87099    
    248000   1551.837      -939.44981      0             -920.39369      703.27432    
    249000   1638.3877     -938.23495      0             -918.11602      10505.181    
    250000   1805.3491     -936.46066      0             -914.29149      3500.6127    
    251000   1716.5705     -935.6388       0             -914.55981      11159.637    
    252000   1524.0781     -938.67958      0             -919.96434      14414.888    
    253000   1525.7818     -940.50471      0             -921.76854     -2134.6637    
    254000   1288.3356     -938.94815      0             -923.12776     -3996.8409    
    255000   1400.224      -939.55551      0             -922.36116      8152.6961    
    256000   1491.5549     -938.13094      0             -919.81508     -9316.2618    
    257000   1537.8269     -937.21173      0             -918.32766      13387.728    
    258000   1581.7177     -940.3544       0             -920.93136      18300.132    
    259000   1262.5472     -939.62928      0             -924.12556     -26177.641    
    260000   1405.5593     -941.20287      0             -923.943        9405.0369    
    261000   1315.0282     -938.02223      0             -921.87406      4486.786     
    262000   1484.6639     -938.41433      0             -920.18308      23799.471    
    263000   1543.8297     -940.71186      0             -921.75407      10733.778    
    264000   1316.1964     -941.91101      0             -925.74849     -1047.0616    
    265000   1354.6582     -942.75538      0             -926.12057      11847.432    
    266000   1463.4162     -943.51199      0             -925.54166      20299.457    
    267000   1349.992      -941.18036      0             -924.60284      16053.234    
    268000   1431.9395     -941.85616      0             -924.27235      25958.882    
    269000   1296.5978     -942.57842      0             -926.65657      18277.762    
    270000   1254.439      -944.13749      0             -928.73334      15838.998    
    271000   1250.6278     -944.10851      0             -928.75116      12564.472    
    272000   1311.6072     -942.8843       0             -926.77814      3479.5368    
    273000   1440.9716     -941.2448       0             -923.55008     -13938.063    
    274000   1396.5143     -941.88804      0             -924.73925     -2500.7111    
    275000   1378.4171     -943.76395      0             -926.83739      15405.717    
    276000   1381.6555     -945.55333      0             -928.587       -6544.2522    
    277000   1316.2084     -945.98784      0             -929.82518     -20307.583    
    278000   1098.8998     -943.73489      0             -930.24071      13025.006    
    279000   1129.8789     -943.96649      0             -930.0919      -10976.797    
    280000   1306.6367     -944.83412      0             -928.789        3979.277     
    281000   1297.638      -943.80181      0             -927.86718      5412.8196    
    282000   1201.2337     -943.86552      0             -929.11471     -3891.4142    
    283000   1150.5857     -945.91206      0             -931.7832       15577.977    
    284000   1084.466      -945.63611      0             -932.31918     -6800.7905    
    285000   1208.343      -946.415        0             -931.57689     -3024.8933    
    286000   1207.8616     -944.97807      0             -930.14588      1757.2938    
    287000   1325.1194     -942.98888      0             -926.71679     -21390.572    
    288000   1251.6481     -942.23943      0             -926.86955      3739.6752    
    289000   1231.8786     -944.94326      0             -929.81614     -6829.4636    
    290000   1140.3685     -945.5933       0             -931.5899      -2683.3111    
    291000   1070.0907     -946.38019      0             -933.23978     -12621.85     
    292000   987.08841     -946.39326      0             -934.2721      -8116.5305    
    293000   888.94608     -945.1509       0             -934.2349      -10519.705    
    294000   1122.9293     -945.48188      0             -931.69263     -8127.1165    
    295000   1224.9619     -945.63824      0             -930.59606     -3202.7937    
    296000   1151.6366     -946.48368      0             -932.34191     -3396.0624    
    297000   932.96315     -945.53487      0             -934.07835     -14351.787    
    298000   999.42287     -946.85026      0             -934.57764      2033.0753    
    299000   1010.1452     -947.13121      0             -934.72692     -9886.6258    
    300000   955.34799     -946.16391      0             -934.43251      9437.4107    
    301000   1053.2434     -946.12974      0             -933.19621      2784.0182    
    302000   1206.3449     -947.35264      0             -932.53906     -8216.9852    
    303000   969.36966     -946.51193      0             -934.60834      24539.755    
    304000   1074.9166     -949.67521      0             -936.47554     -3305.8277    
    305000   862.67009     -947.4969       0             -936.90355     -15071.794    
    306000   967.50537     -948.65745      0             -936.77676     -17116.323    
    307000   985.04263     -947.84024      0             -935.7442      -551.97485    
    308000   919.28184     -945.51443      0             -934.22591      25039.617    
    309000   1001.1362     -947.47572      0             -935.18206      3901.4036    
    310000   938.20424     -949.10287      0             -937.58199      412.93595    
    311000   859.02745     -948.74878      0             -938.20017     -29031.25     
    312000   930.6438      -949.83952      0             -938.41148     -1744.2899    
    313000   866.78666     -949.23439      0             -938.5905      -13665.149    
    314000   900.63363     -949.79201      0             -938.73248     -28006.138    
    315000   854.64912     -948.90388      0             -938.40903     -20107.282    
    316000   866.92382     -948.23865      0             -937.59307      6068.7099    
    317000   909.03915     -948.51333      0             -937.35059      2743.7474    
    318000   855.8049      -949.49597      0             -938.98693     -2693.9654    
    319000   772.98209     -949.87991      0             -940.38792     -8408.3767    
    320000   773.0122      -949.95048      0             -940.45812      5344.9333    
    321000   735.24657     -948.84332      0             -939.81471      1437.1666    
    322000   851.40846     -948.34925      0             -937.8942      -14514.453    
    323000   917.24931     -948.18151      0             -936.91795     -4691.9763    
    324000   837.38786     -949.34346      0             -939.06058     -9754.2411    
    325000   787.71668     -949.99346      0             -940.32052     -9337.4725    
    326000   832.29503     -951.9753       0             -941.75496     -17645.259    
    327000   710.12244     -951.35986      0             -942.63976     -16557.071    
    328000   678.7392      -951.2299       0             -942.89518     -7431.8535    
    329000   637.08098     -950.14858      0             -942.32541     -5790.7348    
    330000   743.30446     -949.90193      0             -940.77437     -13029.827    
    331000   800.75023     -950.82675      0             -940.99377     -4165.615     
    332000   657.54111     -950.95969      0             -942.88527     -29175.063    
    333000   778.78678     -952.98286      0             -943.41958     -32435.277    
    334000   715.80675     -952.56281      0             -943.77291     -7492.6551    
    335000   664.7859      -952.39067      0             -944.22729     -32268.832    
    336000   574.50388     -952.06227      0             -945.00753     -13140.026    
    337000   569.37836     -952.82171      0             -945.82991     -10106.018    
    338000   607.80839     -953.18855      0             -945.72483     -18315.189    
    339000   641.77556     -952.0217       0             -944.14088     -21949.436    
    340000   657.44325     -951.8564       0             -943.78318     -14491.868    
    341000   609.43258     -952.25259      0             -944.76894     -6885.7574    
    342000   607.61726     -953.03979      0             -945.57843     -26209.095    
    343000   551.77622     -952.62011      0             -945.84446     -7964.7188    
    344000   552.08854     -952.84249      0             -946.063       -14557.149    
    345000   526.2955      -953.25841      0             -946.79565     -28649.142    
    346000   468.58098     -953.82564      0             -948.0716      -23481.898    
    347000   523.20832     -954.34985      0             -947.925       -15783.259    
    348000   559.55437     -954.03942      0             -947.16825     -14769.059    
    349000   580.09286     -954.06961      0             -946.94623     -25022.872    
    350000   476.084       -953.05141      0             -947.20524     -27558.619    
    350013   509.1593      -953.46279      0             -947.21046     -28559.718    
Loop time of 187.023 on 144 procs for 250000 steps with 96 atoms

Performance: 115.494 ns/day, 0.208 hours/ns, 1336.734 timesteps/s
99.6% CPU use with 144 MPI tasks x 1 OpenMP threads

MPI task timing breakdown:
Section |  min time  |  avg time  |  max time  |%varavg| %total
---------------------------------------------------------------
Pair    | 14.964     | 34.79      | 61.013     | 163.9 | 18.60
Neigh   | 0.04747    | 0.056521   | 0.064768   |   1.5 |  0.03
Comm    | 103.24     | 128.52     | 148.1      |  80.5 | 68.72
Output  | 0.25391    | 0.25402    | 0.25661    |   0.0 |  0.14
Modify  | 15.777     | 18.167     | 25.881     |  35.0 |  9.71
Other   |            | 5.236      |            |       |  2.80

Nlocal:       0.666667 ave           2 max           0 min
Histogram: 62 0 0 0 0 68 0 0 0 14
Nghost:        442.583 ave         468 max         419 min
Histogram: 7 8 22 23 16 17 22 18 8 3
Neighs:        53.9167 ave         171 max           0 min
Histogram: 62 0 0 0 63 5 0 0 1 13
FullNghs:      107.833 ave         333 max           0 min
Histogram: 62 0 0 0 64 4 0 0 0 14

Total # of neighbors = 15528
Ave neighs/atom = 161.75
Neighbor list builds = 4325
Dangerous builds = 0
unfix           THERMOSTAT

fix             1 all box/relax z 0 vmax 0.001 fixedpoint 0 0 0
minimize        1e-6 1e-10 10000 100000
WARNING: Using 'neigh_modify every 1 delay 0 check yes' setting during minimization (../min.cpp:187)
Generated 0 of 1 mixed pair_coeff terms from geometric mixing rule
Per MPI rank memory allocation (min/avg/max) = 5.046 | 5.713 | 6.047 Mbytes
   Step          Temp          E_pair         E_mol          TotEng         Press          Volume    
    350013   509.1593      -953.46279      0             -947.21046     -28559.718      1268.9106    
    350127   509.1593      -960.43696      0             -954.18463      5441.1429      1237.0833    
Loop time of 0.102161 on 144 procs for 114 steps with 96 atoms

99.8% CPU use with 144 MPI tasks x 1 OpenMP threads

Minimization stats:
  Stopping criterion = energy tolerance
  Energy initial, next-to-last, final = 
     -953.462787107363  -960.436311240571  -960.436961771999
  Force two-norm initial, final = 50.819382 1.7408795
  Force max component initial, final = 48.846897 1.4985976
  Final line search alpha, max atom move = 0.0019237969 0.0028829975
  Iterations, force evaluations = 114 115

MPI task timing breakdown:
Section |  min time  |  avg time  |  max time  |%varavg| %total
---------------------------------------------------------------
Pair    | 8.9715e-05 | 0.018307   | 0.076985   |  13.1 | 17.92
Neigh   | 0          | 0          | 0          |   0.0 |  0.00
Comm    | 0.013265   | 0.070913   | 0.090348   |   6.4 | 69.41
Output  | 0          | 0          | 0          |   0.0 |  0.00
Modify  | 0          | 0          | 0          |   0.0 |  0.00
Other   |            | 0.01294    |            |       | 12.67

Nlocal:       0.666667 ave           2 max           0 min
Histogram: 63 0 0 0 0 66 0 0 0 15
Nghost:        443.708 ave         467 max         423 min
Histogram: 10 7 23 17 26 19 10 15 10 7
Neighs:        53.8264 ave         168 max           0 min
Histogram: 63 0 0 0 54 12 0 0 0 15
FullNghs:      107.653 ave         335 max           0 min
Histogram: 63 0 0 0 64 2 0 0 0 15

Total # of neighbors = 15502
Ave neighs/atom = 161.47917
Neighbor list builds = 0
Dangerous builds = 0
write_data      relaxed.lammps
System init for write_data ...
Generated 0 of 1 mixed pair_coeff terms from geometric mixing rule
Total wall time: 0:04:20
